p cnf 28 142
4 7 11 16 22 29 37 0
8 12 17 23 30 38 47 0
13 18 24 31 39 48 58 0
19 25 32 40 49 59 70 0
-4 -8 0
-7 -12 0
-11 -17 0
-16 -23 0
-22 -30 0
-29 -38 0
-37 -47 0
-4 -13 0
-7 -18 0
-11 -24 0
-16 -31 0
-22 -39 0
-29 -48 0
-37 -58 0
-4 -19 0
-7 -25 0
-11 -32 0
-16 -40 0
-22 -49 0
-29 -59 0
-37 -70 0
-8 -13 0
-12 -18 0
-17 -24 0
-23 -31 0
-30 -39 0
-38 -48 0
-47 -58 0
-8 -19 0
-12 -25 0
-17 -32 0
-23 -40 0
-30 -49 0
-38 -59 0
-47 -70 0
-13 -19 0
-18 -25 0
-24 -32 0
-31 -40 0
-39 -49 0
-48 -59 0
-58 -70 0
-4 -23 0
-4 -47 0
-7 -47 0
-11 -23 0
-11 -38 0
-11 -47 0
-22 -47 0
-29 -47 0
-4 -31 0
-4 -58 0
-7 -58 0
-11 -31 0
-11 -48 0
-11 -58 0
-22 -58 0
-29 -58 0
-4 -40 0
-4 -70 0
-7 -70 0
-11 -40 0
-11 -59 0
-11 -70 0
-22 -70 0
-29 -70 0
-8 -16 0
-8 -37 0
-12 -37 0
-17 -16 0
-17 -29 0
-17 -37 0
-30 -37 0
-38 -37 0
-8 -31 0
-8 -58 0
-12 -58 0
-17 -31 0
-17 -48 0
-17 -58 0
-30 -58 0
-38 -58 0
-8 -40 0
-8 -70 0
-12 -70 0
-17 -40 0
-17 -59 0
-17 -70 0
-30 -70 0
-38 -70 0
-13 -16 0
-13 -37 0
-18 -37 0
-24 -16 0
-24 -29 0
-24 -37 0
-39 -37 0
-48 -37 0
-13 -23 0
-13 -47 0
-18 -47 0
-24 -23 0
-24 -38 0
-24 -47 0
-39 -47 0
-48 -47 0
-13 -40 0
-13 -70 0
-18 -70 0
-24 -40 0
-24 -59 0
-24 -70 0
-39 -70 0
-48 -70 0
-19 -16 0
-19 -37 0
-25 -37 0
-32 -16 0
-32 -29 0
-32 -37 0
-49 -37 0
-59 -37 0
-19 -23 0
-19 -47 0
-25 -47 0
-32 -23 0
-32 -38 0
-32 -47 0
-49 -47 0
-59 -47 0
-19 -31 0
-19 -58 0
-25 -58 0
-32 -31 0
-32 -48 0
-32 -58 0
-49 -58 0
-59 -58 0
